37
1 0 17
2 0 3
2 1 3
3 0 4
3 1 15
3 2 6
4 0 27
4 1 28
4 2 6
4 3 28
5 0 1
5 1 4
5 2 13
5 3 9
5 4 30
6 0 9
6 1 20
6 2 20
6 3 13
6 4 9
6 5 2
7 0 25
7 1 9
7 2 15
7 3 25
7 4 20
7 5 24
7 6 18
8 0 20
8 1 9
8 2 18
8 3 28
8 4 14
8 5 12
8 6 9
8 7 18
9 0 5
9 1 20
9 2 30
9 3 12
9 4 9
9 5 10
9 6 25
9 7 2
9 8 14
10 0 25
10 1 6
10 2 20
10 3 23
10 4 18
10 5 23
10 6 11
10 7 22
10 8 14
10 9 5
11 0 10
11 1 17
11 2 28
11 3 22
11 4 17
11 5 19
11 6 10
11 7 28
11 8 23
11 9 9
11 10 21
12 0 12
12 1 12
12 2 29
12 3 1
12 4 23
12 5 28
12 6 17
12 7 5
12 8 7
12 9 25
12 10 29
12 11 1
13 0 5
13 1 6
13 2 7
13 3 22
13 4 30
13 5 25
13 6 6
13 7 6
13 8 22
13 9 11
13 10 10
13 11 17
13 12 19
14 0 7
14 1 27
14 2 17
14 3 9
14 4 15
14 5 29
14 6 3
14 7 15
14 8 28
14 9 2
14 10 22
14 11 9
14 12 30
14 13 21
15 0 29
15 1 9
15 2 20
15 3 3
15 4 15
15 5 14
15 6 13
15 7 8
15 8 20
15 9 8
15 10 15
15 11 27
15 12 26
15 13 13
15 14 18
16 0 22
16 1 1
16 2 21
16 3 2
16 4 20
16 5 16
16 6 27
16 7 13
16 8 18
16 9 29
16 10 15
16 11 26
16 12 9
16 13 22
16 14 20
16 15 7
17 0 24
17 1 8
17 2 9
17 3 26
17 4 8
17 5 14
17 6 7
17 7 15
17 8 16
17 9 21
17 10 1
17 11 7
17 12 4
17 13 7
17 14 6
17 15 3
17 16 24
18 0 3
18 1 2
18 2 22
18 3 21
18 4 27
18 5 8
18 6 10
18 7 27
18 8 21
18 9 12
18 10 27
18 11 17
18 12 8
18 13 3
18 14 3
18 15 18
18 16 12
18 17 30
19 0 24
19 1 18
19 2 23
19 3 23
19 4 24
19 5 15
19 6 20
19 7 24
19 8 1
19 9 15
19 10 25
19 11 28
19 12 25
19 13 20
19 14 28
19 15 30
19 16 26
19 17 15
19 18 12
20 0 22
20 1 12
20 2 21
20 3 22
20 4 26
20 5 20
20 6 6
20 7 27
20 8 15
20 9 28
20 10 2
20 11 15
20 12 1
20 13 26
20 14 6
20 15 21
20 16 24
20 17 6
20 18 26
20 19 25
21 0 8
21 1 23
21 2 6
21 3 28
21 4 26
21 5 16
21 6 21
21 7 25
21 8 14
21 9 29
21 10 29
21 11 19
21 12 26
21 13 1
21 14 6
21 15 16
21 16 18
21 17 23
21 18 13
21 19 9
21 20 23
22 0 28
22 1 20
22 2 9
22 3 17
22 4 8
22 5 21
22 6 28
22 7 2
22 8 22
22 9 28
22 10 28
22 11 25
22 12 6
22 13 17
22 14 12
22 15 29
22 16 21
22 17 1
22 18 8
22 19 14
22 20 13
22 21 18
23 0 3
23 1 25
23 2 27
23 3 15
23 4 7
23 5 18
23 6 18
23 7 22
23 8 9
23 9 9
23 10 25
23 11 22
23 12 5
23 13 10
23 14 30
23 15 19
23 16 16
23 17 14
23 18 18
23 19 5
23 20 29
23 21 2
23 22 24
24 0 10
24 1 20
24 2 13
24 3 11
24 4 27
24 5 18
24 6 15
24 7 12
24 8 28
24 9 3
24 10 22
24 11 20
24 12 27
24 13 26
24 14 24
24 15 7
24 16 8
24 17 20
24 18 11
24 19 30
24 20 4
24 21 26
24 22 10
24 23 23
25 0 22
25 1 21
25 2 22
25 3 30
25 4 11
25 5 2
25 6 1
25 7 21
25 8 7
25 9 17
25 10 28
25 11 5
25 12 7
25 13 9
25 14 26
25 15 17
25 16 3
25 17 14
25 18 5
25 19 3
25 20 11
25 21 2
25 22 6
25 23 10
25 24 10
26 0 1
26 1 15
26 2 7
26 3 10
26 4 17
26 5 3
26 6 25
26 7 15
26 8 23
26 9 20
26 10 3
26 11 9
26 12 16
26 13 19
26 14 20
26 15 4
26 16 8
26 17 5
26 18 3
26 19 24
26 20 16
26 21 6
26 22 7
26 23 1
26 24 22
26 25 16
27 0 24
27 1 1
27 2 28
27 3 17
27 4 5
27 5 19
27 6 26
27 7 27
27 8 24
27 9 1
27 10 23
27 11 5
27 12 28
27 13 14
27 14 2
27 15 18
27 16 30
27 17 28
27 18 20
27 19 7
27 20 27
27 21 22
27 22 8
27 23 6
27 24 17
27 25 24
27 26 6
28 0 23
28 1 4
28 2 30
28 3 26
28 4 13
28 5 7
28 6 10
28 7 5
28 8 18
28 9 11
28 10 25
28 11 9
28 12 25
28 13 5
28 14 15
28 15 2
28 16 14
28 17 9
28 18 21
28 19 27
28 20 24
28 21 15
28 22 28
28 23 20
28 24 25
28 25 27
28 26 23
28 27 3
29 0 26
29 1 5
29 2 5
29 3 28
29 4 28
29 5 10
29 6 28
29 7 4
29 8 5
29 9 15
29 10 22
29 11 23
29 12 15
29 13 26
29 14 27
29 15 4
29 16 1
29 17 30
29 18 1
29 19 7
29 20 19
29 21 11
29 22 5
29 23 11
29 24 26
29 25 1
29 26 2
29 27 18
29 28 18
30 0 17
30 1 15
30 2 14
30 3 6
30 4 20
30 5 3
30 6 25
30 7 18
30 8 6
30 9 28
30 10 7
30 11 1
30 12 13
30 13 28
30 14 1
30 15 8
30 16 28
30 17 14
30 18 17
30 19 6
30 20 5
30 21 7
30 22 30
30 23 17
30 24 25
30 25 5
30 26 10
30 27 5
30 28 20
30 29 17
31 0 6
31 1 8
31 2 28
31 3 2
31 4 28
31 5 25
31 6 26
31 7 8
31 8 15
31 9 14
31 10 7
31 11 18
31 12 27
31 13 22
31 14 10
31 15 8
31 16 11
31 17 5
31 18 26
31 19 9
31 20 10
31 21 8
31 22 12
31 23 16
31 24 30
31 25 23
31 26 15
31 27 20
31 28 9
31 29 5
31 30 29
32 0 16
32 1 25
32 2 14
32 3 4
32 4 30
32 5 1
32 6 12
32 7 16
32 8 13
32 9 25
32 10 18
32 11 1
32 12 12
32 13 3
32 14 28
32 15 27
32 16 8
32 17 11
32 18 3
32 19 2
32 20 22
32 21 14
32 22 26
32 23 14
32 24 17
32 25 22
32 26 21
32 27 7
32 28 24
32 29 9
32 30 29
32 31 26
33 0 13
33 1 15
33 2 7
33 3 9
33 4 16
33 5 30
33 6 28
33 7 9
33 8 23
33 9 3
33 10 25
33 11 5
33 12 6
33 13 23
33 14 13
33 15 8
33 16 26
33 17 16
33 18 3
33 19 29
33 20 1
33 21 5
33 22 25
33 23 26
33 24 18
33 25 11
33 26 9
33 27 24
33 28 7
33 29 26
33 30 17
33 31 17
33 32 11
34 0 15
34 1 11
34 2 16
34 3 28
34 4 24
34 5 10
34 6 18
34 7 4
34 8 20
34 9 29
34 10 3
34 11 18
34 12 19
34 13 24
34 14 23
34 15 30
34 16 11
34 17 16
34 18 21
34 19 21
34 20 25
34 21 13
34 22 26
34 23 25
34 24 22
34 25 7
34 26 23
34 27 16
34 28 25
34 29 10
34 30 15
34 31 20
34 32 19
34 33 24
35 0 20
35 1 6
35 2 30
35 3 18
35 4 15
35 5 23
35 6 30
35 7 14
35 8 1
35 9 8
35 10 13
35 11 19
35 12 27
35 13 27
35 14 3
35 15 24
35 16 10
35 17 2
35 18 28
35 19 26
35 20 11
35 21 30
35 22 3
35 23 15
35 24 17
35 25 20
35 26 12
35 27 14
35 28 6
35 29 1
35 30 26
35 31 2
35 32 8
35 33 2
35 34 18
36 0 14
36 1 20
36 2 12
36 3 15
36 4 19
36 5 28
36 6 14
36 7 16
36 8 1
36 9 6
36 10 13
36 11 20
36 12 13
36 13 14
36 14 19
36 15 24
36 16 20
36 17 25
36 18 16
36 19 10
36 20 19
36 21 5
36 22 9
36 23 25
36 24 9
36 25 7
36 26 5
36 27 10
36 28 21
36 29 18
36 30 24
36 31 1
36 32 21
36 33 9
36 34 25
36 35 17
